
  32    1
  10

   0   0   8 2 3 4 5 6 7 10 12 
   8   1   5 16 15 11 9 8 
   3   6   6 27 21 19 15 13 9 
   3   7   4 22 14 13 11 
   2   5   4 19 15 9 8 
   8   7   3 22 21 9 
   3   5   6 22 21 20 18 17 14 
   1  10   5 21 20 18 17 14 
   4   9   4 20 18 17 14 
   2  10   4 23 21 18 15 
   7   4   6 30 27 26 25 20 19 
   5   8   2 31 13 
   2   5   5 26 25 20 18 17 
   2   6   6 31 30 29 26 25 23 
   5  10   3 31 20 17 
   1   8   3 26 25 20 
   6   5   3 30 29 24 
   8   7   3 30 29 24 
   7   2   2 31 23 
   3   2   2 29 24 
  10   5   2 31 25 
   6   9   2 30 25 
   8   5   1 24 
  10   5   1 28 
   5   3   1 28 
  10   6   1 28 
   4   4   1 28 
   4   8   1 32
   4   4   1 32
   6   5   1 32
   1   9   1 32
   0   0   0 
